p cnf 15 34
8 11 13 0
4 11 14 0
6 12 -14 0
2 -3 9 0
-5 6 10 0
5 -7 15 0
-13 14 15 0
-5 6 -9 0
-9 -13 14 0
-4 -5 8 0
3 12 13 0
12 14 -15 0
9 12 13 0
1 -4 5 0
-4 6 -14 0
-4 -9 -14 0
2 11 -14 0
-7 -9 12 0
9 14 15 0
1 3 5 0
-1 -2 5 0
-4 -6 15 0
1 -4 -9 0
-3 -11 -12 0
6 -11 -13 0
1 4 -10 0
5 -8 -11 0
-1 12 -15 0
-1 3 11 0
-5 -14 15 0
-1 -7 11 0
-9 -10 -11 0
4 -5 -6 0
-2 6 9 0
